TCS_Benchmarks/redos_fix/snort3_output_distinct_928_927_8_0.smt2
(set-logic QF_S)
(declare-const x String)
(assert (str.in.re x (re.inter  (re.++ (re.* (re.comp  (str.to_re "\u{0A}")) ) (re.+ (re.range "\u{30}" "\u{39}") ))  (re.++ (re.* (re.comp  (str.to_re "\u{0A}")) ) (re.++  (re.++  (str.to.re "\u{25}") (re.opt  (re.++ (re.+ (re.range "\u{30}" "\u{39}") )  (str.to.re "\u{24}")) )) (re.+ (re.range "\u{30}" "\u{39}") ))) )))
(check-sat)
(get-model)