TCS_Benchmarks/redos_fix/snort3_output_distinct_928_927_8_0.txt
([^\n]*)(\d+)
([^\n]*)(%(\d+\$)?)(\d+)